p edge 78 377
1 36
1 54
1 43
1 7
1 2
2 43
2 22
2 3
2 49
2 77
3 29
3 4
3 20
3 11
3 53
4 5
4 76
4 70
4 47
4 45
5 3
5 73
5 6
5 8
5 51
6 32
6 30
6 7
6 15
6 43
7 30
7 24
7 8
7 4
7 36
8 9
8 41
8 48
8 49
8 18
9 29
9 45
9 10
9 70
9 40
10 71
10 25
10 56
10 11
10 73
11 49
11 12
11 37
11 50
11 57
12 25
12 34
12 3
12 10
12 13
13 35
13 14
13 11
13 8
13 47
14 47
14 33
14 73
14 38
14 15
15 63
15 4
15 16
15 5
15 31
16 62
16 17
16 75
16 20
16 1
17 18
17 69
17 71
17 53
17 70
18 56
18 70
18 60
18 19
18 4
19 73
19 20
19 13
19 75
19 26
20 21
20 69
20 37
20 39
21 71
21 22
21 60
21 1
21 49
22 76
22 13
22 66
22 23
22 62
23 24
23 28
23 39
23 53
24 52
24 25
24 75
24 2
24 20
25 26
25 68
25 74
25 62
26 9
26 27
26 61
26 75
26 51
27 20
27 3
27 69
27 28
27 15
28 58
28 48
28 25
28 29
28 30
29 30
29 8
29 11
29 15
29 10
30 15
30 31
30 78
30 43
31 62
31 25
31 23
31 75
31 32
32 60
32 2
32 42
32 57
32 33
33 73
33 37
33 22
33 34
33 7
34 10
34 78
34 35
34 55
34 28
35 48
35 36
35 14
35 53
35 33
36 68
36 38
36 63
36 44
36 37
37 53
37 76
37 38
37 5
37 50
38 39
38 34
38 29
38 50
38 71
39 64
39 27
39 21
39 40
39 47
40 72
40 41
40 27
40 73
40 47
41 22
41 59
41 56
41 42
41 67
42 11
42 43
42 47
42 3
42 57
43 72
43 44
43 57
43 15
43 52
44 18
44 68
44 21
44 19
44 45
45 21
45 22
45 11
45 46
46 23
46 47
46 45
46 50
47 48
47 23
47 18
47 24
48 26
48 45
48 40
48 22
48 49
49 20
49 69
49 50
49 63
49 53
50 77
50 2
50 46
50 51
50 21
51 53
51 21
51 50
51 52
52 39
52 21
52 54
52 53
52 55
53 71
53 54
53 74
53 62
53 31
54 57
54 12
54 16
54 72
54 55
55 42
55 29
55 74
55 56
55 70
56 42
56 53
56 35
56 57
57 58
57 55
57 49
57 5
57 7
58 21
58 16
58 59
58 1
58 78
59 60
59 28
59 66
59 43
60 67
60 16
60 61
60 18
61 50
61 64
61 66
61 39
61 62
62 54
62 49
62 24
62 15
62 63
63 64
63 11
63 58
63 43
63 1
64 8
64 2
64 65
64 46
64 11
65 66
65 69
65 53
65 33
65 1
66 47
66 1
66 67
66 23
66 46
67 61
67 74
67 72
67 48
67 68
68 58
68 69
68 42
68 1
68 34
69 32
69 3
69 70
69 6
69 48
70 2
70 71
70 51
70 23
71 54
71 72
71 77
71 10
71 73
72 30
72 62
72 73
72 19
73 47
73 7
73 74
73 2
73 38
74 9
74 45
74 55
74 40
74 75
75 26
75 52
75 76
75 66
75 41
76 16
76 30
76 4
76 77
76 60
77 78
77 26
77 29
77 53
77 66
78 46
78 19
78 73
78 1
78 55
